c FILE: i160-012

c SOURCE: From steinlib

c DESCRIPTION: Steinlib instance with 160 nodes and 812 edges.

p edge 160 812
e 1 17
e 1 22
e 1 55
e 1 78
e 1 85
e 1 94
e 1 131
e 1 133
e 1 151
e 1 152
e 2 15
e 2 68
e 2 85
e 2 90
e 2 100
e 2 107
e 2 132
e 2 160
e 3 16
e 3 35
e 3 40
e 3 65
e 3 72
e 3 77
e 3 83
e 3 94
e 3 134
e 3 153
e 4 27
e 4 65
e 4 77
e 4 89
e 4 114
e 4 142
e 5 14
e 5 18
e 5 44
e 5 80
e 5 96
e 5 100
e 5 111
e 5 127
e 5 139
e 6 19
e 6 30
e 6 37
e 6 57
e 6 61
e 6 62
e 6 65
e 6 81
e 6 104
e 6 106
e 6 117
e 6 119
e 6 138
e 6 156
e 7 20
e 7 28
e 7 41
e 7 53
e 7 55
e 7 63
e 7 75
e 7 76
e 7 94
e 7 102
e 7 111
e 7 121
e 7 131
e 7 147
e 7 159
e 8 32
e 8 36
e 8 63
e 8 70
e 8 101
e 8 119
e 8 120
e 8 130
e 8 156
e 9 19
e 9 37
e 9 40
e 9 50
e 9 51
e 9 84
e 9 86
e 9 110
e 9 114
e 9 122
e 9 123
e 9 126
e 9 128
e 9 151
e 9 152
e 10 46
e 10 83
e 10 92
e 10 95
e 10 108
e 10 117
e 10 126
e 10 139
e 10 147
e 10 154
e 11 27
e 11 45
e 11 51
e 11 70
e 11 84
e 11 88
e 11 97
e 11 98
e 11 109
e 11 112
e 11 117
e 11 140
e 11 147
e 11 150
e 11 159
e 12 45
e 12 59
e 12 75
e 12 94
e 12 113
e 12 114
e 12 126
e 12 135
e 12 137
e 12 154
e 13 44
e 13 55
e 13 66
e 13 70
e 13 74
e 13 104
e 13 106
e 13 108
e 13 118
e 13 130
e 13 157
e 13 160
e 14 15
e 14 18
e 14 23
e 14 31
e 14 55
e 14 59
e 14 66
e 14 76
e 14 83
e 14 88
e 14 104
e 14 110
e 14 122
e 14 142
e 14 149
e 15 37
e 15 41
e 15 53
e 15 58
e 15 78
e 15 87
e 15 107
e 15 122
e 15 135
e 15 153
e 16 21
e 16 34
e 16 40
e 16 80
e 16 106
e 16 111
e 16 129
e 16 142
e 16 144
e 16 157
e 17 33
e 17 36
e 17 39
e 17 46
e 17 69
e 17 83
e 17 84
e 17 104
e 17 137
e 17 151
e 18 38
e 18 39
e 18 76
e 18 113
e 18 117
e 18 128
e 19 28
e 19 39
e 19 51
e 19 75
e 19 98
e 19 115
e 19 136
e 19 152
e 19 159
e 20 90
e 20 103
e 20 111
e 20 126
e 20 133
e 20 142
e 21 30
e 21 31
e 21 70
e 21 111
e 21 125
e 21 155
e 22 31
e 22 47
e 22 60
e 22 106
e 22 129
e 22 145
e 23 26
e 23 27
e 23 41
e 23 55
e 23 65
e 23 139
e 24 55
e 24 61
e 24 63
e 24 80
e 24 90
e 24 145
e 24 151
e 25 50
e 25 63
e 25 73
e 25 74
e 25 75
e 25 104
e 25 113
e 25 126
e 25 127
e 25 140
e 25 144
e 26 70
e 26 72
e 26 79
e 26 101
e 26 126
e 26 143
e 26 150
e 27 34
e 27 40
e 27 59
e 27 70
e 27 80
e 27 101
e 27 112
e 27 117
e 27 121
e 27 133
e 27 150
e 28 43
e 28 68
e 28 75
e 28 86
e 28 87
e 28 88
e 28 92
e 28 102
e 28 115
e 28 117
e 28 118
e 28 125
e 28 137
e 28 145
e 28 150
e 29 30
e 29 39
e 29 48
e 29 98
e 29 128
e 29 143
e 30 35
e 30 38
e 30 96
e 30 104
e 30 108
e 30 145
e 30 149
e 31 55
e 31 58
e 31 64
e 31 68
e 31 69
e 31 71
e 31 80
e 31 84
e 31 85
e 31 95
e 31 100
e 31 116
e 31 118
e 31 128
e 31 129
e 31 130
e 32 59
e 32 64
e 32 89
e 32 123
e 33 36
e 33 87
e 33 94
e 33 99
e 33 115
e 33 136
e 33 137
e 33 143
e 33 144
e 34 36
e 34 63
e 34 87
e 34 94
e 34 102
e 34 109
e 34 143
e 35 40
e 35 58
e 35 63
e 35 81
e 35 87
e 35 90
e 35 100
e 35 103
e 35 117
e 35 118
e 35 137
e 35 156
e 36 48
e 36 89
e 36 100
e 36 101
e 36 119
e 36 143
e 36 147
e 36 148
e 36 149
e 36 150
e 36 160
e 37 65
e 37 88
e 37 97
e 37 103
e 37 115
e 37 133
e 37 138
e 37 149
e 37 159
e 37 160
e 38 77
e 38 104
e 38 125
e 38 131
e 38 133
e 38 146
e 39 44
e 39 50
e 39 52
e 39 65
e 39 72
e 39 75
e 39 76
e 39 93
e 39 97
e 39 104
e 39 106
e 39 118
e 39 119
e 39 138
e 39 150
e 40 48
e 40 56
e 40 62
e 40 78
e 40 86
e 40 104
e 40 106
e 40 126
e 40 137
e 40 140
e 40 146
e 40 153
e 41 43
e 41 47
e 41 57
e 41 59
e 41 62
e 41 95
e 41 117
e 41 122
e 41 132
e 41 154
e 42 44
e 42 48
e 42 49
e 42 53
e 42 59
e 42 70
e 42 86
e 42 134
e 42 136
e 42 151
e 42 157
e 42 160
e 43 66
e 43 68
e 43 84
e 43 89
e 43 101
e 43 130
e 43 140
e 43 146
e 44 62
e 44 78
e 44 81
e 44 83
e 44 105
e 44 107
e 44 112
e 44 119
e 44 120
e 44 152
e 44 156
e 45 78
e 45 81
e 45 84
e 45 87
e 45 89
e 45 109
e 45 120
e 45 123
e 45 140
e 45 146
e 46 51
e 46 60
e 46 64
e 46 68
e 46 75
e 46 118
e 46 123
e 46 154
e 47 66
e 47 69
e 47 86
e 47 105
e 47 107
e 47 111
e 47 113
e 48 66
e 48 131
e 48 142
e 48 151
e 49 61
e 49 66
e 49 77
e 49 83
e 49 86
e 49 90
e 49 113
e 49 132
e 49 134
e 49 158
e 50 69
e 50 87
e 50 104
e 50 130
e 50 140
e 50 149
e 50 151
e 50 155
e 51 71
e 51 74
e 51 158
e 52 62
e 52 66
e 52 68
e 52 88
e 52 91
e 52 108
e 52 136
e 52 142
e 52 156
e 52 160
e 53 81
e 53 83
e 53 89
e 53 96
e 53 153
e 53 158
e 54 76
e 54 86
e 54 112
e 54 117
e 54 122
e 54 130
e 55 57
e 55 83
e 55 98
e 55 121
e 55 136
e 55 138
e 56 66
e 56 71
e 56 74
e 56 82
e 56 109
e 56 114
e 56 126
e 56 144
e 56 151
e 57 111
e 57 116
e 57 118
e 57 136
e 57 160
e 58 64
e 58 155
e 59 100
e 59 105
e 59 120
e 59 128
e 60 66
e 60 88
e 60 94
e 60 143
e 61 98
e 61 137
e 61 152
e 62 96
e 62 98
e 62 118
e 62 132
e 62 134
e 62 140
e 62 146
e 62 156
e 63 138
e 63 156
e 64 79
e 64 102
e 64 112
e 64 120
e 64 140
e 64 155
e 65 73
e 65 120
e 65 137
e 65 149
e 66 86
e 66 91
e 66 116
e 66 139
e 67 69
e 67 103
e 67 113
e 67 118
e 68 87
e 68 94
e 68 115
e 68 134
e 68 137
e 68 141
e 68 142
e 69 88
e 69 133
e 70 138
e 70 157
e 71 105
e 71 108
e 71 117
e 71 155
e 72 79
e 72 100
e 72 108
e 72 131
e 72 143
e 72 145
e 72 148
e 72 158
e 73 78
e 73 88
e 73 92
e 73 114
e 74 77
e 74 87
e 74 109
e 74 130
e 74 132
e 74 154
e 74 156
e 74 158
e 75 105
e 75 109
e 75 124
e 75 131
e 76 109
e 76 130
e 76 151
e 77 82
e 77 84
e 77 94
e 77 113
e 77 124
e 77 137
e 77 159
e 78 81
e 78 87
e 78 90
e 78 124
e 78 139
e 78 148
e 78 153
e 78 157
e 79 86
e 79 98
e 79 105
e 79 118
e 79 124
e 80 118
e 80 129
e 80 149
e 81 92
e 81 121
e 81 135
e 82 86
e 82 96
e 82 101
e 82 105
e 82 117
e 82 143
e 82 145
e 82 154
e 82 158
e 83 101
e 83 105
e 83 108
e 83 119
e 83 122
e 83 129
e 83 139
e 84 111
e 84 114
e 84 154
e 85 86
e 85 98
e 85 151
e 85 153
e 86 98
e 86 105
e 86 107
e 86 155
e 87 140
e 88 92
e 89 111
e 89 128
e 89 129
e 89 133
e 89 149
e 89 157
e 90 92
e 90 94
e 90 107
e 90 147
e 91 109
e 91 113
e 91 123
e 91 137
e 91 160
e 92 135
e 93 101
e 93 108
e 93 111
e 93 142
e 93 143
e 93 144
e 94 125
e 94 143
e 94 144
e 95 137
e 95 146
e 96 107
e 96 119
e 96 145
e 96 156
e 97 110
e 97 148
e 98 108
e 98 146
e 99 100
e 99 114
e 100 138
e 101 106
e 101 113
e 101 126
e 101 143
e 102 103
e 102 107
e 102 113
e 102 140
e 103 104
e 103 107
e 103 109
e 103 116
e 103 117
e 103 122
e 103 123
e 103 126
e 103 159
e 104 124
e 104 142
e 104 156
e 105 116
e 105 147
e 106 115
e 106 138
e 106 150
e 106 154
e 107 110
e 107 145
e 109 143
e 110 120
e 110 127
e 110 136
e 110 159
e 111 126
e 111 127
e 111 133
e 111 138
e 111 148
e 111 155
e 111 158
e 112 138
e 112 147
e 112 152
e 112 154
e 113 136
e 113 158
e 114 115
e 114 125
e 114 130
e 115 122
e 115 132
e 116 118
e 116 122
e 116 130
e 116 138
e 117 128
e 117 148
e 117 159
e 119 139
e 120 130
e 120 150
e 120 153
e 121 136
e 121 154
e 122 133
e 122 160
e 123 132
e 123 151
e 124 138
e 125 126
e 125 148
e 125 159
e 126 132
e 126 151
e 126 154
e 126 156
e 127 140
e 127 142
e 127 146
e 128 141
e 128 155
e 129 135
e 130 157
e 131 145
e 131 158
e 132 144
e 132 149
e 132 152
e 133 153
e 134 146
e 134 147
e 134 157
e 135 142
e 135 150
e 135 151
e 138 156
e 138 157
e 142 152
e 143 147
e 143 151
e 144 157
e 144 159
e 145 149
e 147 160
e 148 156
e 151 153
e 151 157
e 152 155
e 154 156
e 154 157
